data/CVRPLIB/Vrp-Set-XML100/instances/XML100_1313_05.vrp
NAME : XML100_1313_05
COMMENT : Generated by Queiroga, Sadykov, Uchoa, and Vidal (2021)
TYPE : CVRP
DIMENSION : 101
EDGE_WEIGHT_TYPE : EUC_2D
CAPACITY : 9
NODE_COORD_SECTION
1    564  172 
2    685  994 
3    658  66  
4    459  831 
5    836  740 
6    712  1000
7    361  664 
8    875  106 
9    762  26  
10   625  989 
11   839  882 
12   556  799 
13   928  906 
14   78   681 
15   467  52  
16   763  757 
17   1000 605 
18   842  829 
19   79   645 
20   79   372 
21   376  891 
22   234  518 
23   874  959 
24   777  392 
25   570  963 
26   432  885 
27   547  954 
28   826  889 
29   915  932 
30   215  393 
31   947  911 
32   884  233 
33   720  463 
34   756  840 
35   976  857 
36   379  956 
37   128  91  
38   974  516 
39   726  537 
40   495  996 
41   273  278 
42   889  975 
43   859  890 
44   949  993 
45   854  996 
46   228  66  
47   809  936 
48   796  918 
49   450  961 
50   457  887 
51   612  380 
52   233  350 
53   861  921 
54   847  816 
55   935  899 
56   685  728 
57   921  869 
58   970  941 
59   937  923 
60   653  837 
61   218  361 
62   320  977 
63   109  743 
64   210  18  
65   348  589 
66   997  961 
67   119  839 
68   827  954 
69   607  905 
70   170  976 
71   232  231 
72   720  621 
73   864  963 
74   824  937 
75   814  990 
76   280  49  
77   888  997 
78   628  74  
79   314  4   
80   931  279 
81   886  971 
82   327  107 
83   386  582 
84   335  980 
85   558  440 
86   84   252 
87   213  241 
88   766  920 
89   398  848 
90   872  926 
91   379  795 
92   207  532 
93   447  976 
94   905  394 
95   954  939 
96   483  947 
97   514  687 
98   723  779 
99   411  468 
100  860  988 
101  85   941 
DEMAND_SECTION
1    0   
2    1   
3    1   
4    1   
5    1   
6    1   
7    1   
8    1   
9    1   
10   1   
11   1   
12   1   
13   1   
14   1   
15   1   
16   1   
17   1   
18   1   
19   1   
20   1   
21   1   
22   1   
23   1   
24   1   
25   1   
26   1   
27   1   
28   1   
29   1   
30   1   
31   1   
32   1   
33   1   
34   1   
35   1   
36   1   
37   1   
38   1   
39   1   
40   1   
41   1   
42   1   
43   1   
44   1   
45   1   
46   1   
47   1   
48   1   
49   1   
50   1   
51   1   
52   1   
53   1   
54   1   
55   1   
56   1   
57   1   
58   1   
59   1   
60   1   
61   1   
62   1   
63   1   
64   1   
65   1   
66   1   
67   1   
68   1   
69   1   
70   1   
71   1   
72   1   
73   1   
74   1   
75   1   
76   1   
77   1   
78   1   
79   1   
80   1   
81   1   
82   1   
83   1   
84   1   
85   1   
86   1   
87   1   
88   1   
89   1   
90   1   
91   1   
92   1   
93   1   
94   1   
95   1   
96   1   
97   1   
98   1   
99   1   
100  1   
101  1   
DEPOT_SECTION
1
-1
EOF
