data/CVRPLIB/Vrp-Set-XML100/solutions/XML100_1313_05.sol
Route #1: 77
Route #2: 56 54 12 28 58 30 34 16 37
Route #3: 2 8 7 31 79 93 23 32 50
Route #4: 40 51 60 29 91 21 64 82 98
Route #5: 52 72 99 44 74 67 73 46 47
Route #6: 90 88 20 61 83 35 25 3 96
Route #7: 59 68 9 1 5 87 33 97 55
Route #8: 14 78 75 45 63 36 86 70 81
Route #9: 84 11 24 26 39 92 48 95 49
Route #10: 38 4 53 17 42 10 27 15 71
Route #11: 85 19 18 13 62 66 100 69 6
Route #12: 94 57 65 43 76 41 80 22 89
Cost 18562
